0001 8
0002 12
0003 8
0004 16
0005 18
0006 1
0007 1
0008 2
0009 13
0010 7
0011 12
0012 17
0013 10
0014 16
0015 18
0016 14
0017 1
0018 4
0019 2
0020 18
0021 9
0022 3
0023 5
0024 5
0025 13
0026 13
0027 2
0028 7
0029 2
0030 3
0031 10
0032 11
0033 4
0034 12
0035 1
0036 18
0037 16
0038 5
0039 9
0040 15
0041 6
0042 12
0043 12
0044 9
0045 11
0046 1
0047 10
0048 4
0049 18
0050 1
0051 6
0052 18
0053 18
0054 16
0055 18
0056 6
0057 16
0058 17
0059 9
0060 1
0061 4
0062 1
0063 18
0064 2
0065 12
0066 8
0067 18
0068 15
0069 17
0070 14
0071 14
0072 7
0073 12
0074 18
0075 16
0076 17
0077 10
0078 2
0079 1
0080 5
0081 1
0082 18
0083 1
0084 10
0085 6
0086 6
0087 14
0088 1
0089 14
0090 8
0091 4
0092 18
0093 14
0094 2
0095 17
0096 12
0097 14
0098 10
0099 17
0100 18
0101 13
0102 12
0103 1
0104 4
0105 11
0106 17
0107 13
0108 15
0109 1
0110 18
0111 1
0112 11
0113 1
0114 18
0115 18
0116 2
0117 14
0118 7
0119 17
0120 1
0121 1
0122 15
0123 6
0124 4
0125 11
0126 9
0127 9
0128 9
0129 7
0130 6
0131 1
0132 17
0133 17
0134 8
0135 1
0136 4
0137 1
0138 12
0139 13
0140 5
0141 13
0142 18
0143 2
0144 13
0145 1
0146 11
0147 15
0148 18
0149 8
0150 18
0151 18
0152 8
0153 11
0154 9
0155 9
0156 1
0157 1
0158 6
0159 1
0160 3
0161 14
0162 1
0163 14
0164 18
0165 5
0166 13
0167 17
0168 1
0169 1
0170 18
0171 1
0172 1
0173 1
0174 1
0175 1
0176 1
0177 18
0178 14
0179 1
0180 18
0181 13
0182 18
0183 16
0184 8
0185 10
0186 7
0187 1
0188 17
0189 1
0190 11
0191 3
0192 17
0193 14
0194 6
0195 8
0196 17
0197 12
0198 10
0199 17
0200 12
0201 3
0202 13
0203 7
0204 10
0205 10
0206 4
0207 18
0208 13
0209 7
0210 10
0211 4
0212 4
0213 7
0214 13
0215 18
0216 7
0217 18
0218 7
0219 1
0220 6
0221 1
0222 11
0223 17
0224 10
0225 18
0226 3
0227 12
0228 12
0229 2
0230 5
0231 7
0232 9
0233 1
0234 18
0235 13
0236 14
0237 2
0238 13
0239 12
0240 15
0241 15
0242 10
0243 16
0244 5
0245 14
0246 1
0247 9
0248 11
0249 1
0250 1
0251 6
0252 12
0253 4
0254 17
0255 11
0256 1
0257 16
0258 15
0259 3
0260 18
0261 1
0262 12
0263 7
0264 12
0265 7
0266 1
0267 4
0268 14
0269 13
0270 18
0271 1
0272 14
0273 18
0274 8
0275 7
0276 10
0277 18
0278 16
0279 6
0280 1
0281 2
0282 14
0283 5
0284 18
0285 10
0286 3
0287 14
0288 7
0289 4
0290 18
0291 12
0292 16
0293 6
0294 12
0295 18
0296 1
0297 8
0298 10
0299 4
0300 6
0301 4
0302 15
0303 12
0304 12
0305 10
0306 6
0307 7
0308 17
0309 1
0310 3
0311 16
0312 10
0313 18
0314 13
0315 6
0316 7
0317 1
0318 1
0319 7
0320 17
0321 9
0322 18
0323 17
0324 12
0325 9
0326 1
0327 9
0328 16
0329 6
0330 8
0331 1
0332 18
0333 14
0334 4
0335 1
0336 1
0337 17
0338 12
0339 7
0340 18
0341 10
0342 18
0343 9
0344 18
0345 9
0346 2
0347 12
0348 11
0349 2
0350 6
0351 15
0352 12
0353 10
0354 5
0355 18
0356 3
0357 7
0358 15
0359 18
0360 1
0361 5
0362 14
0363 17
0364 1
0365 3
0366 11
0367 11
0368 13
0369 14
0370 18
0371 6
0372 18
0373 7
0374 18
0375 9
0376 7
0377 9
0378 1
0379 2
0380 8
0381 1
